50

99 27 308
96 33 365
95 18 329
95 26 350
91 5 295
91 0 333
91 13 320
90 8 317
89 1 348
86 8 395
85 13 295
85 14 290
84 24 252
79 28 242
76 24 376
69 28 391
68 8 330
68 31 208
65 12 388
64 5 335
63 30 381
58 17 253
58 7 277
54 1 306
53 21 203
52 4 192
50 9 249
49 13 179
48 22 253
48 2 383
45 8 274
45 9 349
43 9 196
42 5 187
36 3 304
35 2 230
33 5 376
31 12 200
31 14 280
30 0 212
30 0 214
30 13 358
29 4 391
27 8 344
27 10 334
26 2 324
22 7 173
22 3 109
22 2 219
21 9 230
